# Solution for model probrema
# Objective value = 1433149150
X_1_7_0_10 2473300
X_1_7_1_10 0
X_1_8_0_10 0
X_1_8_1_10 0
X_1_9_0_10 0
X_2_7_0_10 0
X_2_7_1_10 2826400
X_2_8_0_10 0
X_2_8_1_10 0
X_2_9_0_10 0
X_3_7_0_10 701800
X_3_7_1_10 1346300
X_3_8_0_10 0
X_3_8_1_10 0
X_3_9_0_10 0
X_4_7_0_10 0
X_4_7_1_10 1955300
X_4_8_0_10 0
X_4_8_1_10 0
X_4_9_0_10 3168000
